(declare-datatypes () ((Nat (Z) (S (p Nat)))))
(declare-datatypes () ((list (nil) (cons (head Nat) (tail list)))))
(declare-fun le (Nat Nat) Bool)
(declare-fun insert2 (Nat list) list)
(declare-fun isort (list) list)
(declare-fun equal (Nat Nat) Bool)
(declare-fun count (Nat list) Nat)
(assert
  (not
    (forall ((x Nat) (y list)) (= (count x (isort y)) (count x y)))))
(assert
  (forall ((x Nat) (y Nat))
    (= (le x y)
      (ite (is-S x) (ite (is-S y) (le (p x) (p y)) false) true))))
(assert
  (forall ((x Nat) (y list))
    (= (insert2 x y)
      (ite
        (is-cons y)
        (ite
          (le x (head y)) (cons x (cons (head y) (tail y)))
          (cons (head y) (insert2 x (tail y))))
        (cons x nil)))))
(assert
  (forall ((x list))
    (= (isort x)
      (ite (is-cons x) (insert2 (head x) (isort (tail x))) nil))))
(assert
  (forall ((x Nat) (y Nat))
    (= (equal x y)
      (ite
        (is-S x) (ite (is-S y) (equal (p x) (p y)) false)
        (not (is-S y))))))
(assert
  (forall ((x Nat) (y list))
    (= (count x y)
      (ite
        (is-cons y)
        (ite (equal x (head y)) (S (count x (tail y))) (count x (tail y)))
        Z))))
(check-sat)
